% demand
num_movements = 10;
loading_factor = [1600, 800, 900, 900, 1650, 1550, 1000, 1500, 800, 1750];
pickup_time = [0, 1, 1, 2, 2, 2, 4, 5, 6, 6];
delivery_time = [2, 2, 2, 3, 3, 7, 5, 7, 7, 7];

% transporter definition
total_capacity = 7000;
num_decks = 3;
capacity = [3000, 1000, 3000];

% ways out of decks
num_ways_out = 1;
paths_out = array3d(decks, ways_out, decks, [
% ways out of deck d1
2, 3, 0, 

% ways out of deck d2
3, 0, 0, 

% ways out of deck d3
0, 0, 0,	

]);

